<number of tasks>
20


<number of equipment>
5


<cycle time>
1000


<investment costs>
1,23469
2,10993
3,17487
4,12805
5,21401


<task times>
1,386,596,-1,621,-1
2,-1,-1,467,560,563
3,337,546,-1,522,-1
4,-1,-1,466,558,386
5,364,648,-1,580,-1
6,261,317,-1,432,-1
7,392,640,-1,601,-1
8,330,517,-1,376,-1
9,339,432,-1,501,-1
10,-1,-1,502,560,443
11,-1,-1,342,477,367
12,362,-1,436,-1,-1
13,-1,-1,461,513,397
14,387,580,-1,535,-1
15,401,587,-1,564,-1
16,352,501,-1,510,-1
17,-1,-1,492,548,427
18,-1,-1,464,524,386
19,349,-1,442,-1,-1
20,334,-1,348,-1,-1


<precedence relations>
1,4
2,5
2,6
2,7
3,6
4,9
5,8
5,10
5,11
6,9
6,10
6,11
7,9
7,10
7,11
8,12
9,14
10,13
10,14
11,14
12,15
13,16
14,17
15,18
16,19
17,19
17,20


<task types>
1,3
2,2
3,3
4,2
5,3
6,3
7,3
8,3
9,3
10,2
11,2
12,1
13,2
14,3
15,3
16,3
17,2
18,2
19,1
20,1


<line depot>
1,1
2,8
3,2
4,5
5,0


<processing costs>
1,14400
2,7200
3,14400
4,14400
5,7200


<saving costs>
1,2346
2,1099
3,1748
4,1280
5,2140


<end>
